400
750
599
597
593
591
591
590
589
588
584
583
583
582
580
579
578
577
576
575
574
573
573
571
570
567
566
565
563
562
561
557
556
556
556
555
550
549
548
546
544
544
543
542
542
541
534
533
530
529
528
527
527
527
526
525
523
521
521
521
517
517
514
514
512
512
511
511
510
509
506
505
505
502
501
499
499
497
497
497
493
492
492
490
489
489
489
488
488
488
487
487
485
485
485
484
479
475
475
475
474
473
470
468
468
467
466
466
465
464
464
464
463
461
461
459
458
457
457
456
456
455
454
454
453
453
452
452
451
451
448
448
447
447
447
446
446
445
445
445
445
445
442
441
441
440
437
437
437
435
433
427
425
425
424
424
423
422
420
418
417
417
417
417
416
416
416
415
413
413
412
411
411
409
408
408
404
403
403
403
402
401
400
398
397
395
394
394
393
392
391
390
389
389
389
389
387
387
386
385
385
384
384
384
381
379
378
376
374
374
371
371
370
370
368
368
367
367
365
364
363
361
360
359
359
358
357
356
354
354
352
349
348
348
346
343
342
342
340
340
337
337
337
336
335
335
334
334
333
333
331
329
328
328
327
327
326
326
326
324
322
321
321
321
319
318
316
315
313
312
312
311
310
309
308
307
306
306
305
304
304
303
302
298
295
294
294
292
292
291
290
287
286
284
281
280
278
273
272
270
267
267
266
264
264
262
261
257
257
256
254
254
253
253
250
249
249
248
246
245
245
245
245
241
241
240
240
239
237
235
234
233
233
231
229
229
229
229
229
226
225
224
222
220
219
218
215
212
211
210
210
210
209
209
204
203
203
202
200
196
194
194
192
190
190
189
189
189
188
188
186
186
185
182
182
181
180
177
177
175
175
173
169
167
167
164
164
163
161
161
161
159
158
155
154
153
152
152
151
150
150
150
